Maximize
  0.0011696559925435 Z_654_2_0 + 0.00696424052508338 Z_654_2_1
   + 0.0387983285944347 Z_654_2_2 + 0.011210718640058 Z_654_2_3
   + 0.8418570562478803 Z_654_2_4 + 0.00601392783908739 Z_654_1_0
   + 0.0576186077082538 Z_654_1_1 + 0.0137242036976928 Z_654_1_2
   + 0.00556543905393239 Z_654_1_3 + 0.8170778217010336 Z_654_1_4
   + 0.0392371407901045 Z_654_3_0 + 0.2051137509372871 Z_654_3_1
   + 0.00636373372946981 Z_654_3_2 + 0.0370128525322561 Z_654_3_3
   + 0.6122725220108824 Z_654_3_4 + 0.00637936532196774 Z_654_4_0
   + 0.111093125200336 Z_654_4_1 + 0.00406597633683358 Z_654_4_2
   + 0.0136470346115848 Z_654_4_3 + 0.7648144985292779 Z_654_4_4
   + 0.00178237335243348 Z_654_0_0 + 0.00217383393966628 Z_654_0_1
   + 0.00657022378028357 Z_654_0_2 + 0.00523003611592872 Z_654_0_3
   + 0.8842435328116879 Z_654_0_4 + 0.0160011085503066 Z_83_0_0
   + 0.00742295714566855 Z_83_0_1 + 0.4489623910136076 Z_83_0_2
   + 0.00399209747662915 Z_83_0_3 + 0.4236214458137881 Z_83_0_4
   + 0.0878278258033397 Z_83_1_0 + 0.0833209004879842 Z_83_1_1
   + 0.0127051445557146 Z_83_1_2 + 0.0810142311672702 Z_83_1_3
   + 0.6351318979856913 Z_83_1_4 + 0.00116915861492258 Z_670_2_0
   + 0.0228475399461125 Z_670_2_1 + 0.00456570321889043 Z_670_2_2
   + 0.5056428909402356 Z_670_2_3 + 0.3657747072798389 Z_670_2_4
   + 0.00116915861492258 Z_670_3_0 + 0.0228475399461125 Z_670_3_1
   + 0.00456570321889043 Z_670_3_2 + 0.5056428909402356 Z_670_3_3
   + 0.3657747072798389 Z_670_3_4 + 0.0305615328490135 Z_670_4_0
   + 0.0149722031320094 Z_670_4_1 + 0.00619070779065792 Z_670_4_2
   + 0.2020747132062761 Z_670_4_3 + 0.6462008430220432 Z_670_4_4
   + 0.011758205266539 Z_670_0_0 + 0.00558674022824826 Z_670_0_1
   + 0.00423880751427546 Z_670_0_2 + 0.0461157461010048 Z_670_0_3
   + 0.8323005008899325 Z_670_0_4 + 0.0052119644484197 Z_670_1_0
   + 0.0674847764961084 Z_670_1_1 + 0.00311593173831709 Z_670_1_2
   + 0.4341846132077626 Z_670_1_3 + 0.3900027141093925 Z_670_1_4
   + 0.000101109 Z_601_0_0 + 0.00513281914005101 Z_601_0_1
   + 0.8617461660571855 Z_601_0_2 + 0.00178025293024562 Z_601_0_3
   + 0.0312396529518652 Z_601_0_4 + 0.00637261445621659 Z_562_0_0
   + 0.0944459517416658 Z_562_0_1 + 0.00126271613151232 Z_562_0_2
   + 0.4554736489737308 Z_562_0_3 + 0.3424450686968745 Z_562_0_4
   + 1.218137493667522e-04 Z_390_0_0 + 0.0954292928026622 Z_390_0_1
   + 0.77481515908805 Z_390_0_2 + 0.00271574107881748 Z_390_0_3
   + 0.0269179932811036 Z_390_0_4 + 1.7474778169558958e-04 Z_311_0_0
   + 0.000343535 Z_311_0_1 + 0.00523930267135814 Z_311_0_2
   + 0.0195432453574865 Z_311_0_3 + 0.8746991692093962 Z_311_0_4
   + 0.00599954293738688 Z_311_1_0 + 0.0115284242817139 Z_311_1_1
   + 0.0116525921710895 Z_311_1_2 + 0.0773391517678027 Z_311_1_3
   + 0.7934802888420071 Z_311_1_4 + 0.0064388236931169 Z_311_4_0
   + 0.0555922125483006 Z_311_4_1 + 9.7579231034718194e-04 Z_311_4_2
   + 0.359104687585877 Z_311_4_3 + 0.4778884838623582 Z_311_4_4
   + 0.0064388236931169 Z_311_3_0 + 0.0555922125483006 Z_311_3_1
   + 9.7579231034718194e-04 Z_311_3_2 + 0.359104687585877 Z_311_3_3
   + 0.4778884838623582 Z_311_3_4 + 0.0173556729613088 Z_311_2_0
   + 0.0256080868069689 Z_311_2_1 + 0.0010440491435073 Z_311_2_2
   + 0.2122798231308657 Z_311_2_3 + 0.6437123679573493 Z_311_2_4
   + 0.00472649148093854 Z_307_0_0 + 0.0511381572281481 Z_307_0_1
   + 0.00622662929094627 Z_307_0_2 + 0.5783702783119006 Z_307_0_3
   + 0.2595384436880665 Z_307_0_4 + 0.00964185216708011 Z_155_0_0
   + 0.0247737219207385 Z_155_0_1 + 0.0180365198534507 Z_155_0_2
   + 0.3055178100244954 Z_155_0_3 + 0.5420300960342354 Z_155_0_4
Subject To
 constraint1_6542: Z_654_2_0 + Z_654_2_1 + Z_654_2_2 + Z_654_2_3
   + Z_654_2_4 <= 1
 constraint1_6541: Z_654_1_0 + Z_654_1_1 + Z_654_1_2 + Z_654_1_3
   + Z_654_1_4 <= 1
 constraint1_6543: Z_654_3_0 + Z_654_3_1 + Z_654_3_2 + Z_654_3_3
   + Z_654_3_4 <= 1
 constraint1_6544: Z_654_4_0 + Z_654_4_1 + Z_654_4_2 + Z_654_4_3
   + Z_654_4_4 <= 1
 constraint1_6540: Z_654_0_0 + Z_654_0_1 + Z_654_0_2 + Z_654_0_3
   + Z_654_0_4 <= 1
 constraint1_830: Z_83_0_0 + Z_83_0_1 + Z_83_0_2 + Z_83_0_3 + Z_83_0_4
   <= 1
 constraint1_831: Z_83_1_0 + Z_83_1_1 + Z_83_1_2 + Z_83_1_3 + Z_83_1_4
   <= 1
 constraint1_6702: Z_670_2_0 + Z_670_2_1 + Z_670_2_2 + Z_670_2_3
   + Z_670_2_4 <= 1
 constraint1_6703: Z_670_3_0 + Z_670_3_1 + Z_670_3_2 + Z_670_3_3
   + Z_670_3_4 <= 1
 constraint1_6704: Z_670_4_0 + Z_670_4_1 + Z_670_4_2 + Z_670_4_3
   + Z_670_4_4 <= 1
 constraint1_6700: Z_670_0_0 + Z_670_0_1 + Z_670_0_2 + Z_670_0_3
   + Z_670_0_4 <= 1
 constraint1_6701: Z_670_1_0 + Z_670_1_1 + Z_670_1_2 + Z_670_1_3
   + Z_670_1_4 <= 1
 constraint1_6010: Z_601_0_0 + Z_601_0_1 + Z_601_0_2 + Z_601_0_3
   + Z_601_0_4 <= 1
 constraint1_5620: Z_562_0_0 + Z_562_0_1 + Z_562_0_2 + Z_562_0_3
   + Z_562_0_4 <= 1
 constraint1_3900: Z_390_0_0 + Z_390_0_1 + Z_390_0_2 + Z_390_0_3
   + Z_390_0_4 <= 1
 constraint1_3110: Z_311_0_0 + Z_311_0_1 + Z_311_0_2 + Z_311_0_3
   + Z_311_0_4 <= 1
 constraint1_3111: Z_311_1_0 + Z_311_1_1 + Z_311_1_2 + Z_311_1_3
   + Z_311_1_4 <= 1
 constraint1_3114: Z_311_4_0 + Z_311_4_1 + Z_311_4_2 + Z_311_4_3
   + Z_311_4_4 <= 1
 constraint1_3113: Z_311_3_0 + Z_311_3_1 + Z_311_3_2 + Z_311_3_3
   + Z_311_3_4 <= 1
 constraint1_3112: Z_311_2_0 + Z_311_2_1 + Z_311_2_2 + Z_311_2_3
   + Z_311_2_4 <= 1
 constraint1_3070: Z_307_0_0 + Z_307_0_1 + Z_307_0_2 + Z_307_0_3
   + Z_307_0_4 <= 1
 constraint1_1550: Z_155_0_0 + Z_155_0_1 + Z_155_0_2 + Z_155_0_3
   + Z_155_0_4 <= 1
 constraint2_980: <= 1
 constraint2_981: <= 1
 constraint2_982: <= 1
 constraint2_983: <= 1
 constraint2_7390: <= 1
 constraint2_7391: <= 1
 constraint2_7392: <= 1
 constraint2_7393: <= 1
 constraint2_1380: <= 1
 constraint2_1381: <= 1
 constraint2_1382: <= 1
 constraint2_1383: <= 1
 constraint2_2340: <= 1
 constraint2_2341: <= 1
 constraint2_2342: <= 1
 constraint2_2343: <= 1
 constraint2_6540: Z_654_2_0 + Z_654_1_0 + Z_654_3_0 + Z_654_4_0
   + Z_654_0_0 <= 1
 constraint2_6541: Z_654_2_1 + Z_654_1_1 + Z_654_3_1 + Z_654_4_1
   + Z_654_0_1 <= 1
 constraint2_6542: Z_654_2_2 + Z_654_1_2 + Z_654_3_2 + Z_654_4_2
   + Z_654_0_2 <= 1
 constraint2_6543: Z_654_2_3 + Z_654_1_3 + Z_654_3_3 + Z_654_4_3
   + Z_654_0_3 <= 1
 constraint2_1360: <= 1
 constraint2_1361: <= 1
 constraint2_1362: <= 1
 constraint2_1363: <= 1
 constraint2_830: Z_83_0_0 + Z_83_1_0 <= 1
 constraint2_831: Z_83_0_1 + Z_83_1_1 <= 1
 constraint2_832: Z_83_0_2 + Z_83_1_2 <= 1
 constraint2_833: Z_83_0_3 + Z_83_1_3 <= 1
 constraint2_6700: Z_670_2_0 + Z_670_3_0 + Z_670_4_0 + Z_670_0_0
   + Z_670_1_0 <= 1
 constraint2_6701: Z_670_2_1 + Z_670_3_1 + Z_670_4_1 + Z_670_0_1
   + Z_670_1_1 <= 1
 constraint2_6702: Z_670_2_2 + Z_670_3_2 + Z_670_4_2 + Z_670_0_2
   + Z_670_1_2 <= 1
 constraint2_6703: Z_670_2_3 + Z_670_3_3 + Z_670_4_3 + Z_670_0_3
   + Z_670_1_3 <= 1
 constraint2_6010: Z_601_0_0 <= 1
 constraint2_6011: Z_601_0_1 <= 1
 constraint2_6012: Z_601_0_2 <= 1
 constraint2_6013: Z_601_0_3 <= 1
 constraint2_4700: <= 1
 constraint2_4701: <= 1
 constraint2_4702: <= 1
 constraint2_4703: <= 1
 constraint2_1700: <= 1
 constraint2_1701: <= 1
 constraint2_1702: <= 1
 constraint2_1703: <= 1
 constraint2_5620: Z_562_0_0 <= 1
 constraint2_5621: Z_562_0_1 <= 1
 constraint2_5622: Z_562_0_2 <= 1
 constraint2_5623: Z_562_0_3 <= 1
 constraint2_3900: Z_390_0_0 <= 1
 constraint2_3901: Z_390_0_1 <= 1
 constraint2_3902: Z_390_0_2 <= 1
 constraint2_3903: Z_390_0_3 <= 1
 constraint2_3110: Z_311_0_0 + Z_311_1_0 + Z_311_4_0 + Z_311_3_0
   + Z_311_2_0 <= 1
 constraint2_3111: Z_311_0_1 + Z_311_1_1 + Z_311_4_1 + Z_311_3_1
   + Z_311_2_1 <= 1
 constraint2_3112: Z_311_0_2 + Z_311_1_2 + Z_311_4_2 + Z_311_3_2
   + Z_311_2_2 <= 1
 constraint2_3113: Z_311_0_3 + Z_311_1_3 + Z_311_4_3 + Z_311_3_3
   + Z_311_2_3 <= 1
 constraint2_400: <= 1
 constraint2_401: <= 1
 constraint2_402: <= 1
 constraint2_403: <= 1
 constraint2_3070: Z_307_0_0 <= 1
 constraint2_3071: Z_307_0_1 <= 1
 constraint2_3072: Z_307_0_2 <= 1
 constraint2_3073: Z_307_0_3 <= 1
 constraint2_7530: <= 1
 constraint2_7531: <= 1
 constraint2_7532: <= 1
 constraint2_7533: <= 1
 constraint2_1550: Z_155_0_0 <= 1
 constraint2_1551: Z_155_0_1 <= 1
 constraint2_1552: Z_155_0_2 <= 1
 constraint2_1553: Z_155_0_3 <= 1
Bounds
Binaries
 Z_654_2_0 Z_654_2_1 Z_654_2_2 Z_654_2_3 Z_654_2_4 Z_654_1_0 Z_654_1_1
 Z_654_1_2 Z_654_1_3 Z_654_1_4 Z_654_3_0 Z_654_3_1 Z_654_3_2 Z_654_3_3
 Z_654_3_4 Z_654_4_0 Z_654_4_1 Z_654_4_2 Z_654_4_3 Z_654_4_4 Z_654_0_0
 Z_654_0_1 Z_654_0_2 Z_654_0_3 Z_654_0_4 Z_83_0_0 Z_83_0_1 Z_83_0_2
 Z_83_0_3 Z_83_0_4 Z_83_1_0 Z_83_1_1 Z_83_1_2 Z_83_1_3 Z_83_1_4 Z_670_2_0
 Z_670_2_1 Z_670_2_2 Z_670_2_3 Z_670_2_4 Z_670_3_0 Z_670_3_1 Z_670_3_2
 Z_670_3_3 Z_670_3_4 Z_670_4_0 Z_670_4_1 Z_670_4_2 Z_670_4_3 Z_670_4_4
 Z_670_0_0 Z_670_0_1 Z_670_0_2 Z_670_0_3 Z_670_0_4 Z_670_1_0 Z_670_1_1
 Z_670_1_2 Z_670_1_3 Z_670_1_4 Z_601_0_0 Z_601_0_1 Z_601_0_2 Z_601_0_3
 Z_601_0_4 Z_562_0_0 Z_562_0_1 Z_562_0_2 Z_562_0_3 Z_562_0_4 Z_390_0_0
 Z_390_0_1 Z_390_0_2 Z_390_0_3 Z_390_0_4 Z_311_0_0 Z_311_0_1 Z_311_0_2
 Z_311_0_3 Z_311_0_4 Z_311_1_0 Z_311_1_1 Z_311_1_2 Z_311_1_3 Z_311_1_4
 Z_311_4_0 Z_311_4_1 Z_311_4_2 Z_311_4_3 Z_311_4_4 Z_311_3_0 Z_311_3_1
 Z_311_3_2 Z_311_3_3 Z_311_3_4 Z_311_2_0 Z_311_2_1 Z_311_2_2 Z_311_2_3
 Z_311_2_4 Z_307_0_0 Z_307_0_1 Z_307_0_2 Z_307_0_3 Z_307_0_4 Z_155_0_0
 Z_155_0_1 Z_155_0_2 Z_155_0_3 Z_155_0_4
End
